30
0 1 0.64 0.25
0 2 0.52 0.1
0 3 0.61 0.27
0 4 0.73 0.34
0 5 0.58 0.27
0 6 0.8 0.26
0 7 0.48 0.22
0 8 0.58 0.26
0 9 0.64 0.16
0 10 0.86 0.22
0 11 0.74 0.22
0 12 0.66 0.3
0 13 0.24 0.12
0 14 0.59 0.2
0 15 0.68 0.33
0 16 0.78 0.31
0 17 0.7 0.32
0 18 0.44 0.32
0 19 0.64 0.3
0 20 0.51 0.3
0 21 0.32 0.18
0 22 0.4 0.27
0 23 0.66 0.22
0 24 0.78 0.18
0 25 0.56 0.24
0 26 0.56 0.18
0 27 0.71 0.3
0 28 0.68 0.26
0 29 0.64 0.26
1 2 0.32 0.15
1 3 0.59 0.16
1 4 0.59 0.34
1 5 0.72 0.25
1 6 0.64 0.27
1 7 0.69 0.18
1 8 0.52 0.3
1 9 0.44 0.1
1 10 0.66 0.16
1 11 0.78 0.18
1 12 0.5 0.23
1 13 0.58 0.2
1 14 0.35 0.18
1 15 0.54 0.19
1 16 0.73 0.29
1 17 0.38 0.28
1 18 0.36 0.28
1 19 0.72 0.3
1 20 0.75 0.23
1 21 0.44 0.24
1 22 0.24 0.11
1 23 0.64 0.13
1 24 0.39 0.14
1 25 0.38 0.15
1 26 0.62 0.2
1 27 0.72 0.34
1 28 0.7 0.29
1 29 0.3 0.2
2 3 0.54 0.3
2 4 0.27 0.24
2 5 0.63 0.17
2 6 0.79 0.21
2 7 0.48 0.22
2 8 0.81 0.16
2 9 0.28 0.06
2 10 0.53 0.12
2 11 0.73 0.12
2 12 0.57 0.2
2 13 0.28 0.12
2 14 0.48 0.1
2 15 0.64 0.28
2 16 0.79 0.21
2 17 0.57 0.24
2 18 0.68 0.32
2 19 0.44 0.2
2 20 0.52 0.21
2 21 0.64 0.19
2 22 0.56 0.26
2 23 0.36 0.12
2 24 0.71 0.18
2 25 0.51 0.14
2 26 0.61 0.25
2 27 0.62 0.2
2 28 0.72 0.26
2 29 0.52 0.16
3 4 0.63 0.18
3 5 0.4 0.32
3 6 0.7 0.21
3 7 0.77 0.25
3 8 0.79 0.32
3 9 0.26 0.24
3 10 0.8 0.26
3 11 0.49 0.26
3 12 0.52 0.36
3 13 0.72 0.35
3 14 0.54 0.26
3 15 0.56 0.28
3 16 0.62 0.37
3 17 0.62 0.36
3 18 0.44 0.2
3 19 0.76 0.28
3 20 0.72 0.33
3 21 0.7 0.19
3 22 0.59 0.27
3 23 0.75 0.29
3 24 0.7 0.29
3 25 0.46 0.31
3 26 0.46 0.13
3 27 0.7 0.28
3 28 0.7 0.44
3 29 0.5 0.34
4 5 0.56 0.19
4 6 0.52 0.32
4 7 0.57 0.22
4 8 0.84 0.25
4 9 0.55 0.26
4 10 0.42 0.28
4 11 0.8 0.32
4 12 0.6 0.27
4 13 0.55 0.28
4 14 0.66 0.2
4 15 0.44 0.33
4 16 0.6 0.31
4 17 0.71 0.34
4 18 0.45 0.31
4 19 0.36 0.1
4 20 0.5 0.15
4 21 0.7 0.28
4 22 0.72 0.36
4 23 0.63 0.24
4 24 0.52 0.26
4 25 0.24 0.22
4 26 0.71 0.31
4 27 0.57 0.21
4 28 0.7 0.34
4 29 0.4 0.16
5 6 0.74 0.37
5 7 0.88 0.18
5 8 0.56 0.24
5 9 0.66 0.2
5 10 0.71 0.25
5 11 0.6 0.28
5 12 0.78 0.17
5 13 0.58 0.2
5 14 0.6 0.07
5 15 0.71 0.14
5 16 0.52 0.18
5 17 0.54 0.18
5 18 0.71 0.3
5 19 0.66 0.15
5 20 0.45 0.04
5 21 0.46 0.24
5 22 0.83 0.22
5 23 0.61 0.14
5 24 0.82 0.16
5 25 0.53 0.16
5 26 0.86 0.29
5 27 0.64 0.28
5 28 0.43 0.15
5 29 0.67 0.24
6 7 0.46 0.19
6 8 0.7 0.13
6 9 0.56 0.26
6 10 0.7 0.21
6 11 0.4 0.09
6 12 0.68 0.31
6 13 0.92 0.29
6 14 0.64 0.3
6 15 0.9 0.23
6 16 0.6 0.19
6 17 0.62 0.23
6 18 0.36 0.17
6 19 0.68 0.31
6 20 0.68 0.33
6 21 0.56 0.14
6 22 0.42 0.31
6 23 0.52 0.24
6 24 0.72 0.23
6 25 0.76 0.26
6 26 0.56 0.08
6 27 0.59 0.17
6 28 0.52 0.27
6 29 0.57 0.16
7 8 0.7 0.21
7 9 0.76 0.23
7 10 0.54 0.17
7 11 0.28 0.1
7 12 0.76 0.18
7 13 0.46 0.1
7 14 0.77 0.24
7 15 0.62 0.26
7 16 0.46 0.22
7 17 0.5 0.24
7 18 0.5 0.18
7 19 0.72 0.12
7 20 0.5 0.14
7 21 0.42 0.06
7 22 0.62 0.22
7 23 0.66 0.24
7 24 0.38 0.04
7 25 0.7 0.22
7 26 0.55 0.12
7 27 0.28 0.17
7 28 0.46 0.24
7 29 0.52 0.32
8 9 0.53 0.22
8 10 0.54 0.24
8 11 0.42 0.22
8 12 0.48 0.27
8 13 0.72 0.18
8 14 0.87 0.17
8 15 0.51 0.27
8 16 0.58 0.06
8 17 0.6 0.31
8 18 0.39 0.24
8 19 0.54 0.3
8 20 0.51 0.28
8 21 0.54 0.16
8 22 0.28 0.19
8 23 0.67 0.2
8 24 0.75 0.24
8 25 0.77 0.22
8 26 0.66 0.21
8 27 0.42 0.04
8 28 0.61 0.32
8 29 0.77 0.29
9 10 0.54 0.06
9 11 0.49 0.18
9 12 0.53 0.19
9 13 0.56 0.18
9 14 0.7 0.16
9 15 0.64 0.22
9 16 0.58 0.24
9 17 0.62 0.27
9 18 0.7 0.34
9 19 0.72 0.22
9 20 0.54 0.16
9 21 0.62 0.17
9 22 0.54 0.21
9 23 0.49 0.06
9 24 0.63 0.24
9 25 0.42 0.08
9 26 0.67 0.19
9 27 0.56 0.26
9 28 0.6 0.22
9 29 0.24 0.1
10 11 0.64 0.18
10 12 0.59 0.13
10 13 0.72 0.12
10 14 0.62 0.22
10 15 0.56 0.28
10 16 0.38 0.18
10 17 0.78 0.21
10 18 0.54 0.32
10 19 0.65 0.28
10 20 0.81 0.21
10 21 0.64 0.11
10 22 0.62 0.25
10 23 0.65 0.12
10 24 0.5 0.18
10 25 0.66 0.14
10 26 0.72 0.13
10 27 0.67 0.28
10 28 0.28 0.26
10 29 0.53 0.16
11 12 0.8 0.22
11 13 0.52 0.2
11 14 0.74 0.22
11 15 0.75 0.28
11 16 0.64 0.28
11 17 0.76 0.14
11 18 0.5 0.26
11 19 0.89 0.22
11 20 0.54 0.24
11 21 0.7 0.07
11 22 0.56 0.27
11 23 0.67 0.23
11 24 0.66 0.14
11 25 0.82 0.25
11 26 0.71 0.13
11 27 0.46 0.22
11 28 0.67 0.18
11 29 0.5 0.25
12 13 0.44 0.2
12 14 0.58 0.1
12 15 0.48 0.2
12 16 0.54 0.21
12 17 0.48 0.08
12 18 0.74 0.28
12 19 0.56 0.3
12 20 0.74 0.21
12 21 0.65 0.24
12 22 0.26 0.12
12 23 0.8 0.14
12 24 0.38 0.14
12 25 0.66 0.12
12 26 0.54 0.26
12 27 0.7 0.31
12 28 0.87 0.19
12 29 0.5 0.24
13 14 0.76 0.22
13 15 0.56 0.26
13 16 0.74 0.24
13 17 0.58 0.25
13 18 0.65 0.2
13 19 0.55 0.22
13 20 0.69 0.24
13 21 0.39 0.16
13 22 0.62 0.24
13 23 0.53 0.23
13 24 0.58 0.06
13 25 0.32 0.24
13 26 0.51 0.22
13 27 0.58 0.22
13 28 0.44 0.14
13 29 0.63 0.28
14 15 0.6 0.21
14 16 0.69 0.11
14 17 0.73 0.14
14 18 0.66 0.33
14 19 0.7 0.22
14 20 0.82 0.11
14 21 0.45 0.18
14 22 0.59 0.16
14 23 0.76 0.21
14 24 0.58 0.23
14 25 0.7 0.22
14 26 0.69 0.24
14 27 0.74 0.21
14 28 0.48 0.22
14 29 0.65 0.26
15 16 0.53 0.32
15 17 0.74 0.28
15 18 0.64 0.36
15 19 0.58 0.29
15 20 0.81 0.18
15 21 0.7 0.21
15 22 0.72 0.08
15 23 0.66 0.26
15 24 0.24 0.22
15 25 0.68 0.24
15 26 0.34 0.15
15 27 0.59 0.31
15 28 0.4 0.28
15 29 0.6 0.18
16 17 0.66 0.25
16 18 0.7 0.22
16 19 0.58 0.33
16 20 0.78 0.22
16 21 0.88 0.22
16 22 0.71 0.25
16 23 0.71 0.24
16 24 0.76 0.26
16 25 0.42 0.22
16 26 0.81 0.27
16 27 0.54 0.1
16 28 0.66 0.3
16 29 0.5 0.3
17 18 0.26 0.22
17 19 0.4 0.33
17 20 0.64 0.22
17 21 0.82 0.21
17 22 0.38 0.2
17 23 0.48 0.22
17 24 0.5 0.22
17 25 0.76 0.2
17 26 0.48 0.27
17 27 0.46 0.31
17 28 0.86 0.11
17 29 0.44 0.32
18 19 0.62 0.3
18 20 0.78 0.32
18 21 0.62 0.24
18 22 0.6 0.32
18 23 0.71 0.28
18 24 0.52 0.14
18 25 0.69 0.26
18 26 0.72 0.21
18 27 0.72 0.24
18 28 0.76 0.33
18 29 0.52 0.33
19 20 0.75 0.19
19 21 0.42 0.18
19 22 0.76 0.34
19 23 0.7 0.25
19 24 0.34 0.16
19 25 0.6 0.27
19 26 0.62 0.24
19 27 0.68 0.29
19 28 0.47 0.3
19 29 0.5 0.2
20 21 0.56 0.2
20 22 0.54 0.26
20 23 0.16 0.1
20 24 0.57 0.18
20 25 0.74 0.12
20 26 0.48 0.26
20 27 0.74 0.29
20 28 0.54 0.19
20 29 0.5 0.2
21 22 0.5 0.2
21 23 0.4 0.22
21 24 0.46 0.1
21 25 0.46 0.24
21 26 0.58 0.06
21 27 0.7 0.2
21 28 0.64 0.25
21 29 0.38 0.27
22 23 0.7 0.18
22 24 0.62 0.18
22 25 0.49 0.16
22 26 0.38 0.23
22 27 0.68 0.23
22 28 0.61 0.31
22 29 0.54 0.26
23 24 0.72 0.2
23 25 0.66 0.02
23 26 0.32 0.16
23 27 0.58 0.24
23 28 0.38 0.16
23 29 0.34 0.16
24 25 0.53 0.18
24 26 0.4 0.16
24 27 0.66 0.21
24 28 0.6 0.2
24 29 0.55 0.34
25 26 0.81 0.18
25 27 0.42 0.26
25 28 0.7 0.18
25 29 0.32 0.18
26 27 0.64 0.25
26 28 0.7 0.31
26 29 0.61 0.24
27 28 0.65 0.36
27 29 0.42 0.33
28 29 0.72 0.32
